p cnf 122 431
c p weight 14 -1 0
c p weight -14 1 0
c p weight 16 6.12323399573676603586882014729198302312846062338790031898128063403419218957424163818359375E-17 0
c p weight -16 1 0
c p weight 17 1 0
c p weight -17 1 0
c p weight 18 -1 0
c p weight -18 1 0
c p weight 20 -1 0
c p weight -20 1 0
c p weight 21 -1 0
c p weight -21 1 0
c p weight 23 -1 0
c p weight -23 1 0
c p weight 25 6.12323399573676603586882014729198302312846062338790031898128063403419218957424163818359375E-17 0
c p weight -25 1 0
c p weight 26 1 0
c p weight -26 1 0
c p weight 27 -1 0
c p weight -27 1 0
c p weight 29 -1 0
c p weight -29 1 0
c p weight 30 -1 0
c p weight -30 1 0
c p weight 32 -1 0
c p weight -32 1 0
c p weight 34 6.12323399573676603586882014729198302312846062338790031898128063403419218957424163818359375E-17 0
c p weight -34 1 0
c p weight 35 1 0
c p weight -35 1 0
c p weight 36 -1 0
c p weight -36 1 0
c p weight 38 -1 0
c p weight -38 1 0
c p weight 40 -1 0
c p weight -40 1 0
c p weight 42 6.12323399573676603586882014729198302312846062338790031898128063403419218957424163818359375E-17 0
c p weight -42 1 0
c p weight 43 1 0
c p weight -43 1 0
c p weight 44 -1 0
c p weight -44 1 0
c p weight 46 -1 0
c p weight -46 1 0
c p weight 47 -1 0
c p weight -47 1 0
c p weight 49 -1 0
c p weight -49 1 0
c p weight 51 6.12323399573676603586882014729198302312846062338790031898128063403419218957424163818359375E-17 0
c p weight -51 1 0
c p weight 52 1 0
c p weight -52 1 0
c p weight 53 -1 0
c p weight -53 1 0
c p weight 55 -1 0
c p weight -55 1 0
c p weight 56 -1 0
c p weight -56 1 0
c p weight 58 -1 0
c p weight -58 1 0
c p weight 60 6.12323399573676603586882014729198302312846062338790031898128063403419218957424163818359375E-17 0
c p weight -60 1 0
c p weight 61 1 0
c p weight -61 1 0
c p weight 62 -1 0
c p weight -62 1 0
c p weight 64 -1 0
c p weight -64 1 0
c p weight 67 -1 0
c p weight -67 1 0
c p weight 68 -1 0
c p weight -68 1 0
c p weight 70 -1 0
c p weight -70 1 0
c p weight 72 6.12323399573676603586882014729198302312846062338790031898128063403419218957424163818359375E-17 0
c p weight -72 1 0
c p weight 73 1 0
c p weight -73 1 0
c p weight 74 -1 0
c p weight -74 1 0
c p weight 76 -1 0
c p weight -76 1 0
c p weight 79 -1 0
c p weight -79 1 0
c p weight 80 -1 0
c p weight -80 1 0
c p weight 82 -1 0
c p weight -82 1 0
c p weight 84 6.12323399573676603586882014729198302312846062338790031898128063403419218957424163818359375E-17 0
c p weight -84 1 0
c p weight 85 1 0
c p weight -85 1 0
c p weight 86 -1 0
c p weight -86 1 0
c p weight 88 -1 0
c p weight -88 1 0
c p weight 91 -1 0
c p weight -91 1 0
c p weight 93 -1 0
c p weight -93 1 0
c p weight 95 6.12323399573676603586882014729198302312846062338790031898128063403419218957424163818359375E-17 0
c p weight -95 1 0
c p weight 96 1 0
c p weight -96 1 0
c p weight 97 -1 0
c p weight -97 1 0
c p weight 99 -1 0
c p weight -99 1 0
c p weight 102 -1 0
c p weight -102 1 0
c p weight 103 -1 0
c p weight -103 1 0
c p weight 105 -1 0
c p weight -105 1 0
c p weight 107 6.12323399573676603586882014729198302312846062338790031898128063403419218957424163818359375E-17 0
c p weight -107 1 0
c p weight 108 1 0
c p weight -108 1 0
c p weight 109 -1 0
c p weight -109 1 0
c p weight 111 -1 0
c p weight -111 1 0
c p weight 114 -1 0
c p weight -114 1 0
c p weight 116 -1 0
c p weight -116 1 0
c p weight 118 6.12323399573676603586882014729198302312846062338790031898128063403419218957424163818359375E-17 0
c p weight -118 1 0
c p weight 119 1 0
c p weight -119 1 0
c p weight 120 -1 0
c p weight -120 1 0
c p weight 122 -1 0
c p weight -122 1 0
-11 0
-9 0
-7 0
-5 0
-3 0
-1 0
13 1 -2 0
13 -1 2 0
-13 1 2 0
-13 -1 -2 0
-14 1 0
-14 2 0
14 -1 -2 0
15 -1 13 0
-15 1 13 0
-16 13 0
15 -16 -1 0
-15 -16 1 0
15 16 1 -13 0
-15 16 -1 -13 0
-17 13 0
15 -17 1 0
-15 -17 -1 0
15 17 -1 -13 0
-15 17 1 -13 0
-18 15 0
-18 13 0
-18 -1 0
18 -15 1 -13 0
19 15 -13 0
19 -15 13 0
-19 15 13 0
-19 -15 -13 0
-20 15 0
-20 13 0
20 -15 -13 0
21 -19 0
-21 19 0
22 3 -4 0
22 -3 4 0
-22 3 4 0
-22 -3 -4 0
-23 3 0
-23 4 0
23 -3 -4 0
24 -3 22 0
-24 3 22 0
-25 22 0
24 -25 -3 0
-24 -25 3 0
24 25 3 -22 0
-24 25 -3 -22 0
-26 22 0
24 -26 3 0
-24 -26 -3 0
24 26 -3 -22 0
-24 26 3 -22 0
-27 24 0
-27 22 0
-27 -3 0
27 -24 3 -22 0
28 24 -22 0
28 -24 22 0
-28 24 22 0
-28 -24 -22 0
-29 24 0
-29 22 0
29 -24 -22 0
30 -28 0
-30 28 0
31 5 -6 0
31 -5 6 0
-31 5 6 0
-31 -5 -6 0
-32 5 0
-32 6 0
32 -5 -6 0
33 -5 31 0
-33 5 31 0
-34 31 0
33 -34 -5 0
-33 -34 5 0
33 34 5 -31 0
-33 34 -5 -31 0
-35 31 0
33 -35 5 0
-33 -35 -5 0
33 35 -5 -31 0
-33 35 5 -31 0
-36 33 0
-36 31 0
-36 -5 0
36 -33 5 -31 0
37 33 -31 0
37 -33 31 0
-37 33 31 0
-37 -33 -31 0
-38 33 0
-38 31 0
38 -33 -31 0
39 7 -8 0
39 -7 8 0
-39 7 8 0
-39 -7 -8 0
-40 7 0
-40 8 0
40 -7 -8 0
41 -7 39 0
-41 7 39 0
-42 39 0
41 -42 -7 0
-41 -42 7 0
41 42 7 -39 0
-41 42 -7 -39 0
-43 39 0
41 -43 7 0
-41 -43 -7 0
41 43 -7 -39 0
-41 43 7 -39 0
-44 41 0
-44 39 0
-44 -7 0
44 -41 7 -39 0
45 41 -39 0
45 -41 39 0
-45 41 39 0
-45 -41 -39 0
-46 41 0
-46 39 0
46 -41 -39 0
47 -45 0
-47 45 0
48 9 -10 0
48 -9 10 0
-48 9 10 0
-48 -9 -10 0
-49 9 0
-49 10 0
49 -9 -10 0
50 -9 48 0
-50 9 48 0
-51 48 0
50 -51 -9 0
-50 -51 9 0
50 51 9 -48 0
-50 51 -9 -48 0
-52 48 0
50 -52 9 0
-50 -52 -9 0
50 52 -9 -48 0
-50 52 9 -48 0
-53 50 0
-53 48 0
-53 -9 0
53 -50 9 -48 0
54 50 -48 0
54 -50 48 0
-54 50 48 0
-54 -50 -48 0
-55 50 0
-55 48 0
55 -50 -48 0
56 -12 0
-56 12 0
57 11 -12 0
57 -11 12 0
-57 11 12 0
-57 -11 -12 0
-58 11 0
-58 12 0
58 -11 -12 0
59 -11 57 0
-59 11 57 0
-60 57 0
59 -60 -11 0
-59 -60 11 0
59 60 11 -57 0
-59 60 -11 -57 0
-61 57 0
59 -61 11 0
-59 -61 -11 0
59 61 -11 -57 0
-59 61 11 -57 0
-62 59 0
-62 57 0
-62 -11 0
62 -59 11 -57 0
63 59 -57 0
63 -59 57 0
-63 59 57 0
-63 -59 -57 0
-64 59 0
-64 57 0
64 -59 -57 0
65 15 -59 0
65 -15 59 0
-65 15 59 0
-65 -15 -59 0
66 19 -63 0
66 -19 63 0
-66 19 63 0
-66 -19 -63 0
-67 15 0
-67 63 0
-67 59 -19 0
-67 -59 19 0
67 -15 59 19 -63 0
67 -15 -59 -19 -63 0
68 -66 0
-68 66 0
69 15 -66 0
69 -15 66 0
-69 15 66 0
-69 -15 -66 0
-70 15 0
-70 66 0
70 -15 -66 0
71 -15 69 0
-71 15 69 0
-72 69 0
71 -72 -15 0
-71 -72 15 0
71 72 15 -69 0
-71 72 -15 -69 0
-73 69 0
71 -73 15 0
-71 -73 -15 0
71 73 -15 -69 0
-71 73 15 -69 0
-74 71 0
-74 69 0
-74 -15 0
74 -71 15 -69 0
75 71 -69 0
75 -71 69 0
-75 71 69 0
-75 -71 -69 0
-76 71 0
-76 69 0
76 -71 -69 0
77 24 -65 0
77 -24 65 0
-77 24 65 0
-77 -24 -65 0
78 28 -63 0
78 -28 63 0
-78 28 63 0
-78 -28 -63 0
-79 24 0
-79 63 0
-79 65 -28 0
-79 -65 28 0
79 -24 65 28 -63 0
79 -24 -65 -28 -63 0
80 -78 0
-80 78 0
81 24 -78 0
81 -24 78 0
-81 24 78 0
-81 -24 -78 0
-82 24 0
-82 78 0
82 -24 -78 0
83 -24 81 0
-83 24 81 0
-84 81 0
83 -84 -24 0
-83 -84 24 0
83 84 24 -81 0
-83 84 -24 -81 0
-85 81 0
83 -85 24 0
-83 -85 -24 0
83 85 -24 -81 0
-83 85 24 -81 0
-86 83 0
-86 81 0
-86 -24 0
86 -83 24 -81 0
87 83 -81 0
87 -83 81 0
-87 83 81 0
-87 -83 -81 0
-88 83 0
-88 81 0
88 -83 -81 0
89 33 -77 0
89 -33 77 0
-89 33 77 0
-89 -33 -77 0
90 37 -63 0
90 -37 63 0
-90 37 63 0
-90 -37 -63 0
-91 33 0
-91 63 0
-91 77 -37 0
-91 -77 37 0
91 -33 77 37 -63 0
91 -33 -77 -37 -63 0
92 33 -90 0
92 -33 90 0
-92 33 90 0
-92 -33 -90 0
-93 33 0
-93 90 0
93 -33 -90 0
94 -33 92 0
-94 33 92 0
-95 92 0
94 -95 -33 0
-94 -95 33 0
94 95 33 -92 0
-94 95 -33 -92 0
-96 92 0
94 -96 33 0
-94 -96 -33 0
94 96 -33 -92 0
-94 96 33 -92 0
-97 94 0
-97 92 0
-97 -33 0
97 -94 33 -92 0
98 94 -92 0
98 -94 92 0
-98 94 92 0
-98 -94 -92 0
-99 94 0
-99 92 0
99 -94 -92 0
100 41 -89 0
100 -41 89 0
-100 41 89 0
-100 -41 -89 0
101 45 -63 0
101 -45 63 0
-101 45 63 0
-101 -45 -63 0
-102 41 0
-102 63 0
-102 89 -45 0
-102 -89 45 0
102 -41 89 45 -63 0
102 -41 -89 -45 -63 0
103 -101 0
-103 101 0
104 41 -101 0
104 -41 101 0
-104 41 101 0
-104 -41 -101 0
-105 41 0
-105 101 0
105 -41 -101 0
106 -41 104 0
-106 41 104 0
-107 104 0
106 -107 -41 0
-106 -107 41 0
106 107 41 -104 0
-106 107 -41 -104 0
-108 104 0
106 -108 41 0
-106 -108 -41 0
106 108 -41 -104 0
-106 108 41 -104 0
-109 106 0
-109 104 0
-109 -41 0
109 -106 41 -104 0
110 106 -104 0
110 -106 104 0
-110 106 104 0
-110 -106 -104 0
-111 106 0
-111 104 0
111 -106 -104 0
112 50 -100 0
112 -50 100 0
-112 50 100 0
-112 -50 -100 0
113 54 -63 0
113 -54 63 0
-113 54 63 0
-113 -54 -63 0
-114 50 0
-114 63 0
-114 100 -54 0
-114 -100 54 0
114 -50 100 54 -63 0
114 -50 -100 -54 -63 0
115 50 -113 0
115 -50 113 0
-115 50 113 0
-115 -50 -113 0
-116 50 0
-116 113 0
116 -50 -113 0
117 -50 115 0
-117 50 115 0
-118 115 0
117 -118 -50 0
-117 -118 50 0
117 118 50 -115 0
-117 118 -50 -115 0
-119 115 0
117 -119 50 0
-117 -119 -50 0
117 119 -50 -115 0
-117 119 50 -115 0
-120 117 0
-120 115 0
-120 -50 0
120 -117 50 -115 0
121 117 -115 0
121 -117 115 0
-121 117 115 0
-121 -117 -115 0
-122 117 0
-122 115 0
122 -117 -115 0
-71 0
-83 0
-87 0
-94 0
-98 0
-106 0
-110 0
-117 0
-121 0
-112 0
-63 0
